p cnf 7 26 20
20 1 0
1 -1 -2 0
1 -1 -3 0
1 -1 -4 0
1 -1 -5 0
1 -1 -6 0
20 2 0
1 -2 -3 0
1 -2 -4 0
1 -2 -5 0
1 -2 -6 0
1 -2 -7 0
20 3 0
1 -3 -4 0
1 -3 -5 0
1 -3 -6 0
1 -3 -7 0
20 4 0
1 -4 -6 0
1 -4 -7 0
20 5 0
1 -5 -6 0
1 -5 -7 0
20 6 0
1 -6 -7 0
20 7 0
